%%% static parameters %%%
timespan = 1;
Clients_N = [4000];
Demand_W = [15];
Lt0 = [4];
Lt1 = [4];
SS_ = [0.85];
DS_D = [20];
K = [200];
MA = [500];
HC = [0.05];
%%% dynamic parameters %%%
lost_ratio_sales_ret_th = 0.00044915472151607237;
lost_ratio_sales_ret_w = 85;
lost_ratio_sales_dis_th = 0.0003957268504409656;
lost_ratio_sales_dis_w = 25;
lost_ratio_sales_fac_th = 0.0004905858602491555;
lost_ratio_sales_fac_w = 22;
stock_customer_MA_mean_relative_th = 0.8315311471112675;
stock_customer_MA_mean_relative_w = 1;
stock_distributor_MA_mean_relative_th = 0.13531821313885894;
stock_distributor_MA_mean_relative_w = 34;
stock_retailer_MA_mean_relative_th = 0.749644683599986;
stock_retailer_MA_mean_relative_w = 1;
stock_factory_MA_mean_relative_th = 0.8913125961973305;
stock_factory_MA_mean_relative_w = 80;
